p cnf 11 39
11 -10 5 0
-11 10 -4 0
11 -10 3 0
-11 10 1 0
-11 -7 -6 0
-11 7 3 0
11 -7 -2 0
11 -6 5 0
-11 5 -1 0
10 9 -8 0
10 -9 -4 0
10 8 -6 0
-10 -8 -3 0
-10 -7 -4 0
10 -7 3 0
10 -6 2 0
10 -6 -2 0
10 -6 -1 0
-10 3 1 0
-10 2 1 0
9 8 3 0
-9 7 -5 0
9 -7 5 0
-9 -5 -1 0
9 3 1 0
-9 2 1 0
-8 -7 -6 0
-8 7 -3 0
-8 -7 -3 0
-8 -6 4 0
8 -5 -2 0
-8 -2 -1 0
6 -5 -4 0
-6 -5 1 0
-6 -5 -1 0
-6 -3 -2 0
-4 3 -1 0
-3 -2 1 0
-3 2 -1 0
